\ This file was automatically generated by Zimpl
\ param file := "knapsacks/rucksack0500.txt";
\ param n := read file as "1n" skip 0 use 1;
\ param maxWeight := read file as "1n" skip 1+n use 1;
\ set N := {1 .. n};
\ var items[N] binary;
\ param value[N] := read file as "1n" skip 1 use n;
\ param weight[N] := read file as "2n" skip 1 use n;
\ maximize rucksack: sum <j> in N : items[j] * value[j];
\ subto maxWeightConstraint: (sum <j> in N : items[j] * weight[j]) <= maxWeight;
\Problem name: KnapsackSolver.zpl
Maximize
 rucksack:  +485 items#1 +94 items#2 +326 items#3 +506 items#4 +248 items#5 +416 items#6
  +421 items#7 +992 items#8 +322 items#9 +649 items#10 +795 items#11 +237 items#12
  +43 items#13 +457 items#14 +845 items#15 +815 items#16 +955 items#17 +446 items#18
  +252 items#19 +422 items#20 +9 items#21 +791 items#22 +901 items#23 +359 items#24
  +122 items#25 +667 items#26 +94 items#27 +598 items#28 +738 items#29 +7 items#30
  +574 items#31 +544 items#32 +715 items#33 +334 items#34 +882 items#35 +766 items#36
  +367 items#37 +994 items#38 +984 items#39 +893 items#40 +299 items#41 +633 items#42
  +433 items#43 +131 items#44 +682 items#45 +428 items#46 +72 items#47 +700 items#48
  +874 items#49 +617 items#50 +138 items#51 +874 items#52 +856 items#53 +720 items#54
  +145 items#55 +419 items#56 +995 items#57 +794 items#58 +529 items#59 +196 items#60
  +199 items#61 +997 items#62 +277 items#63 +116 items#64 +97 items#65 +908 items#66
  +719 items#67 +539 items#68 +242 items#69 +707 items#70 +107 items#71 +569 items#72
  +122 items#73 +537 items#74 +70 items#75 +931 items#76 +98 items#77 +726 items#78
  +600 items#79 +487 items#80 +645 items#81 +772 items#82 +267 items#83 +513 items#84
  +972 items#85 +81 items#86 +895 items#87 +943 items#88 +213 items#89 +58 items#90
  +748 items#91 +303 items#92 +487 items#93 +764 items#94 +923 items#95 +536 items#96
  +29 items#97 +724 items#98 +674 items#99 +789 items#100 +540 items#101 +479 items#102
  +554 items#103 +142 items#104 +467 items#105 +339 items#106 +46 items#107 +641 items#108
  +710 items#109 +196 items#110 +553 items#111 +494 items#112 +191 items#113 +66 items#114
  +724 items#115 +824 items#116 +730 items#117 +208 items#118 +988 items#119 +711 items#120
  +90 items#121 +800 items#122 +340 items#123 +314 items#124 +549 items#125 +289 items#126
  +196 items#127 +401 items#128 +865 items#129 +466 items#130 +678 items#131 +689 items#132
  +570 items#133 +833 items#134 +936 items#135 +225 items#136 +722 items#137 +244 items#138
  +651 items#139 +849 items#140 +123 items#141 +113 items#142 +431 items#143 +379 items#144
  +508 items#145 +361 items#146 +585 items#147 +65 items#148 +853 items#149 +486 items#150
  +642 items#151 +686 items#152 +992 items#153 +286 items#154 +725 items#155 +889 items#156
  +286 items#157 +24 items#158 +812 items#159 +491 items#160 +859 items#161 +891 items#162
  +663 items#163 +90 items#164 +88 items#165 +181 items#166 +179 items#167 +214 items#168
  +187 items#169 +17 items#170 +619 items#171 +472 items#172 +261 items#173 +418 items#174
  +846 items#175 +419 items#176 +192 items#177 +356 items#178 +261 items#179 +682 items#180
  +514 items#181 +306 items#182 +886 items#183 +201 items#184 +530 items#185 +385 items#186
  +849 items#187 +952 items#188 +294 items#189 +500 items#190 +799 items#191 +194 items#192
  +391 items#193 +737 items#194 +330 items#195 +324 items#196 +298 items#197 +992 items#198
  +790 items#199 +224 items#200 +275 items#201 +260 items#202 +826 items#203 +97 items#204
  +72 items#205 +210 items#206 +866 items#207 +649 items#208 +951 items#209 +919 items#210
  +748 items#211 +63 items#212 +685 items#213 +958 items#214 +956 items#215 +804 items#216
  +564 items#217 +518 items#218 +183 items#219 +428 items#220 +400 items#221 +537 items#222
  +721 items#223 +346 items#224 +207 items#225 +153 items#226 +323 items#227 +971 items#228
  +611 items#229 +662 items#230 +116 items#231 +197 items#232 +109 items#233 +91 items#234
  +795 items#235 +529 items#236 +343 items#237 +126 items#238 +862 items#239 +747 items#240
  +685 items#241 +469 items#242 +10 items#243 +770 items#244 +881 items#245 +934 items#246
  +984 items#247 +723 items#248 +403 items#249 +895 items#250 +360 items#251 +568 items#252
  +449 items#253 +172 items#254 +541 items#255 +958 items#256 +272 items#257 +383 items#258
  +877 items#259 +308 items#260 +359 items#261 +970 items#262 +707 items#263 +583 items#264
  +308 items#265 +48 items#266 +770 items#267 +930 items#268 +30 items#269 +569 items#270
  +208 items#271 +3 items#272 +311 items#273 +20 items#274 +100 items#275 +609 items#276
  +939 items#277 +887 items#278 +422 items#279 +825 items#280 +785 items#281 +930 items#282
  +370 items#283 +904 items#284 +989 items#285 +241 items#286 +969 items#287 +379 items#288
  +143 items#289 +376 items#290 +972 items#291 +962 items#292 +28 items#293 +889 items#294
  +61 items#295 +443 items#296 +638 items#297 +216 items#298 +348 items#299 +338 items#300
  +347 items#301 +160 items#302 +66 items#303 +406 items#304 +391 items#305 +159 items#306
  +638 items#307 +31 items#308 +295 items#309 +204 items#310 +826 items#311 +420 items#312
  +196 items#313 +153 items#314 +449 items#315 +425 items#316 +855 items#317 +331 items#318
  +143 items#319 +565 items#320 +487 items#321 +838 items#322 +140 items#323 +9 items#324
  +564 items#325 +918 items#326 +615 items#327 +533 items#328 +135 items#329 +232 items#330
  +564 items#331 +957 items#332 +360 items#333 +591 items#334 +793 items#335 +576 items#336
  +163 items#337 +746 items#338 +859 items#339 +377 items#340 +760 items#341 +858 items#342
  +711 items#343 +86 items#344 +662 items#345 +434 items#346 +159 items#347 +558 items#348
  +660 items#349 +279 items#350 +268 items#351 +840 items#352 +948 items#353 +735 items#354
  +315 items#355 +574 items#356 +676 items#357 +126 items#358 +341 items#359 +912 items#360
  +689 items#361 +739 items#362 +894 items#363 +821 items#364 +706 items#365 +625 items#366
  +490 items#367 +917 items#368 +478 items#369 +201 items#370 +671 items#371 +993 items#372
  +932 items#373 +149 items#374 +899 items#375 +52 items#376 +237 items#377 +759 items#378
  +187 items#379 +267 items#380 +472 items#381 +256 items#382 +772 items#383 +783 items#384
  +98 items#385 +117 items#386 +906 items#387 +516 items#388 +911 items#389 +180 items#390
  +635 items#391 +25 items#392 +225 items#393 +380 items#394 +823 items#395 +712 items#396
  +164 items#397 +266 items#398 +343 items#399 +216 items#400 +732 items#401 +448 items#402
  +502 items#403 +541 items#404 +740 items#405 +664 items#406 +576 items#407 +954 items#408
  +612 items#409 +726 items#410 +902 items#411 +772 items#412 +454 items#413 +531 items#414
  +411 items#415 +943 items#416 +973 items#417 +750 items#418 +703 items#419 +327 items#420
  +850 items#421 +917 items#422 +77 items#423 +5 items#424 +220 items#425 +113 items#426
  +802 items#427 +913 items#428 +403 items#429 +791 items#430 +181 items#431 +998 items#432
  +10 items#433 +859 items#434 +525 items#435 +345 items#436 +919 items#437 +431 items#438
  +668 items#439 +675 items#440 +527 items#441 +833 items#442 +462 items#443 +438 items#444
  +291 items#445 +523 items#446 +605 items#447 +916 items#448 +457 items#449 +420 items#450
  +405 items#451 +115 items#452 +417 items#453 +660 items#454 +279 items#455 +261 items#456
  +685 items#457 +772 items#458 +596 items#459 +388 items#460 +307 items#461 +764 items#462
  +224 items#463 +843 items#464 +322 items#465 +206 items#466 +840 items#467 +407 items#468
  +975 items#469 +639 items#470 +401 items#471 +852 items#472 +91 items#473 +542 items#474
  +327 items#475 +60 items#476 +330 items#477 +757 items#478 +182 items#479 +82 items#480
  +603 items#481 +637 items#482 +793 items#483 +93 items#484 +615 items#485 +614 items#486
  +733 items#487 +136 items#488 +864 items#489 +187 items#490 +16 items#491 +102 items#492
  +863 items#493 +972 items#494 +987 items#495 +163 items#496 +306 items#497 +501 items#498
  +34 items#499 +477 items#500
Subject to
 maxWeightConst@0:
  +477 items#500 +34 items#499 +501 items#498 +306 items#497 +163 items#496 +987 items#495
  +972 items#494 +863 items#493 +102 items#492 +16 items#491 +187 items#490 +864 items#489
  +136 items#488 +733 items#487 +614 items#486 +615 items#485 +93 items#484 +793 items#483
  +637 items#482 +603 items#481 +82 items#480 +182 items#479 +757 items#478 +330 items#477
  +60 items#476 +327 items#475 +542 items#474 +91 items#473 +852 items#472 +401 items#471
  +639 items#470 +975 items#469 +407 items#468 +840 items#467 +206 items#466 +322 items#465
  +843 items#464 +224 items#463 +764 items#462 +307 items#461 +388 items#460 +596 items#459
  +772 items#458 +685 items#457 +261 items#456 +279 items#455 +660 items#454 +417 items#453
  +115 items#452 +405 items#451 +420 items#450 +457 items#449 +916 items#448 +605 items#447
  +523 items#446 +291 items#445 +438 items#444 +462 items#443 +833 items#442 +527 items#441
  +675 items#440 +668 items#439 +431 items#438 +919 items#437 +345 items#436 +525 items#435
  +859 items#434 +10 items#433 +998 items#432 +181 items#431 +791 items#430 +403 items#429
  +913 items#428 +802 items#427 +113 items#426 +220 items#425 +5 items#424 +77 items#423
  +917 items#422 +850 items#421 +327 items#420 +703 items#419 +750 items#418 +973 items#417
  +943 items#416 +411 items#415 +531 items#414 +454 items#413 +772 items#412 +902 items#411
  +726 items#410 +612 items#409 +954 items#408 +576 items#407 +664 items#406 +740 items#405
  +541 items#404 +502 items#403 +448 items#402 +732 items#401 +216 items#400 +343 items#399
  +266 items#398 +164 items#397 +712 items#396 +823 items#395 +380 items#394 +225 items#393
  +25 items#392 +635 items#391 +180 items#390 +911 items#389 +516 items#388 +906 items#387
  +117 items#386 +98 items#385 +783 items#384 +772 items#383 +256 items#382 +472 items#381
  +267 items#380 +187 items#379 +759 items#378 +237 items#377 +52 items#376 +899 items#375
  +149 items#374 +932 items#373 +993 items#372 +671 items#371 +201 items#370 +478 items#369
  +917 items#368 +490 items#367 +625 items#366 +706 items#365 +821 items#364 +894 items#363
  +739 items#362 +689 items#361 +912 items#360 +341 items#359 +126 items#358 +676 items#357
  +574 items#356 +315 items#355 +735 items#354 +948 items#353 +840 items#352 +268 items#351
  +279 items#350 +660 items#349 +558 items#348 +159 items#347 +434 items#346 +662 items#345
  +86 items#344 +711 items#343 +858 items#342 +760 items#341 +377 items#340 +859 items#339
  +746 items#338 +163 items#337 +576 items#336 +793 items#335 +591 items#334 +360 items#333
  +957 items#332 +564 items#331 +232 items#330 +135 items#329 +533 items#328 +615 items#327
  +918 items#326 +564 items#325 +9 items#324 +140 items#323 +838 items#322 +487 items#321
  +565 items#320 +143 items#319 +331 items#318 +855 items#317 +425 items#316 +449 items#315
  +153 items#314 +196 items#313 +420 items#312 +826 items#311 +204 items#310 +295 items#309
  +31 items#308 +638 items#307 +159 items#306 +391 items#305 +406 items#304 +66 items#303
  +160 items#302 +347 items#301 +338 items#300 +348 items#299 +216 items#298 +638 items#297
  +443 items#296 +61 items#295 +889 items#294 +28 items#293 +962 items#292 +972 items#291
  +376 items#290 +143 items#289 +379 items#288 +969 items#287 +241 items#286 +989 items#285
  +904 items#284 +370 items#283 +930 items#282 +785 items#281 +825 items#280 +422 items#279
  +887 items#278 +939 items#277 +609 items#276 +100 items#275 +20 items#274 +311 items#273
  +3 items#272 +208 items#271 +569 items#270 +30 items#269 +930 items#268 +770 items#267
  +48 items#266 +308 items#265 +583 items#264 +707 items#263 +970 items#262 +359 items#261
  +308 items#260 +877 items#259 +383 items#258 +272 items#257 +958 items#256 +541 items#255
  +172 items#254 +449 items#253 +568 items#252 +360 items#251 +895 items#250 +403 items#249
  +723 items#248 +984 items#247 +934 items#246 +881 items#245 +770 items#244 +10 items#243
  +469 items#242 +685 items#241 +747 items#240 +862 items#239 +126 items#238 +343 items#237
  +529 items#236 +795 items#235 +91 items#234 +109 items#233 +197 items#232 +116 items#231
  +662 items#230 +611 items#229 +971 items#228 +323 items#227 +153 items#226 +207 items#225
  +346 items#224 +721 items#223 +537 items#222 +400 items#221 +428 items#220 +183 items#219
  +518 items#218 +564 items#217 +804 items#216 +956 items#215 +958 items#214 +685 items#213
  +63 items#212 +748 items#211 +919 items#210 +951 items#209 +649 items#208 +866 items#207
  +210 items#206 +72 items#205 +97 items#204 +826 items#203 +260 items#202 +275 items#201
  +224 items#200 +790 items#199 +992 items#198 +298 items#197 +324 items#196 +330 items#195
  +737 items#194 +391 items#193 +194 items#192 +799 items#191 +500 items#190 +294 items#189
  +952 items#188 +849 items#187 +385 items#186 +530 items#185 +201 items#184 +886 items#183
  +306 items#182 +514 items#181 +682 items#180 +261 items#179 +356 items#178 +192 items#177
  +419 items#176 +846 items#175 +418 items#174 +261 items#173 +472 items#172 +619 items#171
  +17 items#170 +187 items#169 +214 items#168 +179 items#167 +181 items#166 +88 items#165
  +90 items#164 +663 items#163 +891 items#162 +859 items#161 +491 items#160 +812 items#159
  +24 items#158 +286 items#157 +889 items#156 +725 items#155 +286 items#154 +992 items#153
  +686 items#152 +642 items#151 +486 items#150 +853 items#149 +65 items#148 +585 items#147
  +361 items#146 +508 items#145 +379 items#144 +431 items#143 +113 items#142 +123 items#141
  +849 items#140 +651 items#139 +244 items#138 +722 items#137 +225 items#136 +936 items#135
  +833 items#134 +570 items#133 +689 items#132 +678 items#131 +466 items#130 +865 items#129
  +401 items#128 +196 items#127 +289 items#126 +549 items#125 +314 items#124 +340 items#123
  +800 items#122 +90 items#121 +711 items#120 +988 items#119 +208 items#118 +730 items#117
  +824 items#116 +724 items#115 +66 items#114 +191 items#113 +494 items#112 +553 items#111
  +196 items#110 +710 items#109 +641 items#108 +46 items#107 +339 items#106 +467 items#105
  +142 items#104 +554 items#103 +479 items#102 +540 items#101 +789 items#100 +674 items#99
  +724 items#98 +29 items#97 +536 items#96 +923 items#95 +764 items#94 +487 items#93
  +303 items#92 +748 items#91 +58 items#90 +213 items#89 +943 items#88 +895 items#87
  +81 items#86 +972 items#85 +513 items#84 +267 items#83 +772 items#82 +645 items#81
  +487 items#80 +600 items#79 +726 items#78 +98 items#77 +931 items#76 +70 items#75
  +537 items#74 +122 items#73 +569 items#72 +107 items#71 +707 items#70 +242 items#69
  +539 items#68 +719 items#67 +908 items#66 +97 items#65 +116 items#64 +277 items#63
  +997 items#62 +199 items#61 +196 items#60 +529 items#59 +794 items#58 +995 items#57
  +419 items#56 +145 items#55 +720 items#54 +856 items#53 +874 items#52 +138 items#51
  +617 items#50 +874 items#49 +700 items#48 +72 items#47 +428 items#46 +682 items#45
  +131 items#44 +433 items#43 +633 items#42 +299 items#41 +893 items#40 +984 items#39
  +994 items#38 +367 items#37 +766 items#36 +882 items#35 +334 items#34 +715 items#33
  +544 items#32 +574 items#31 +7 items#30 +738 items#29 +598 items#28 +94 items#27
  +667 items#26 +122 items#25 +359 items#24 +901 items#23 +791 items#22 +9 items#21
  +422 items#20 +252 items#19 +446 items#18 +955 items#17 +815 items#16 +845 items#15
  +457 items#14 +43 items#13 +237 items#12 +795 items#11 +649 items#10 +322 items#9
  +992 items#8 +421 items#7 +416 items#6 +248 items#5 +506 items#4 +326 items#3
  +94 items#2 +485 items#1 <= 60000
Bounds
 0 <= items#1 <= 1
 0 <= items#2 <= 1
 0 <= items#3 <= 1
 0 <= items#4 <= 1
 0 <= items#5 <= 1
 0 <= items#6 <= 1
 0 <= items#7 <= 1
 0 <= items#8 <= 1
 0 <= items#9 <= 1
 0 <= items#10 <= 1
 0 <= items#11 <= 1
 0 <= items#12 <= 1
 0 <= items#13 <= 1
 0 <= items#14 <= 1
 0 <= items#15 <= 1
 0 <= items#16 <= 1
 0 <= items#17 <= 1
 0 <= items#18 <= 1
 0 <= items#19 <= 1
 0 <= items#20 <= 1
 0 <= items#21 <= 1
 0 <= items#22 <= 1
 0 <= items#23 <= 1
 0 <= items#24 <= 1
 0 <= items#25 <= 1
 0 <= items#26 <= 1
 0 <= items#27 <= 1
 0 <= items#28 <= 1
 0 <= items#29 <= 1
 0 <= items#30 <= 1
 0 <= items#31 <= 1
 0 <= items#32 <= 1
 0 <= items#33 <= 1
 0 <= items#34 <= 1
 0 <= items#35 <= 1
 0 <= items#36 <= 1
 0 <= items#37 <= 1
 0 <= items#38 <= 1
 0 <= items#39 <= 1
 0 <= items#40 <= 1
 0 <= items#41 <= 1
 0 <= items#42 <= 1
 0 <= items#43 <= 1
 0 <= items#44 <= 1
 0 <= items#45 <= 1
 0 <= items#46 <= 1
 0 <= items#47 <= 1
 0 <= items#48 <= 1
 0 <= items#49 <= 1
 0 <= items#50 <= 1
 0 <= items#51 <= 1
 0 <= items#52 <= 1
 0 <= items#53 <= 1
 0 <= items#54 <= 1
 0 <= items#55 <= 1
 0 <= items#56 <= 1
 0 <= items#57 <= 1
 0 <= items#58 <= 1
 0 <= items#59 <= 1
 0 <= items#60 <= 1
 0 <= items#61 <= 1
 0 <= items#62 <= 1
 0 <= items#63 <= 1
 0 <= items#64 <= 1
 0 <= items#65 <= 1
 0 <= items#66 <= 1
 0 <= items#67 <= 1
 0 <= items#68 <= 1
 0 <= items#69 <= 1
 0 <= items#70 <= 1
 0 <= items#71 <= 1
 0 <= items#72 <= 1
 0 <= items#73 <= 1
 0 <= items#74 <= 1
 0 <= items#75 <= 1
 0 <= items#76 <= 1
 0 <= items#77 <= 1
 0 <= items#78 <= 1
 0 <= items#79 <= 1
 0 <= items#80 <= 1
 0 <= items#81 <= 1
 0 <= items#82 <= 1
 0 <= items#83 <= 1
 0 <= items#84 <= 1
 0 <= items#85 <= 1
 0 <= items#86 <= 1
 0 <= items#87 <= 1
 0 <= items#88 <= 1
 0 <= items#89 <= 1
 0 <= items#90 <= 1
 0 <= items#91 <= 1
 0 <= items#92 <= 1
 0 <= items#93 <= 1
 0 <= items#94 <= 1
 0 <= items#95 <= 1
 0 <= items#96 <= 1
 0 <= items#97 <= 1
 0 <= items#98 <= 1
 0 <= items#99 <= 1
 0 <= items#100 <= 1
 0 <= items#101 <= 1
 0 <= items#102 <= 1
 0 <= items#103 <= 1
 0 <= items#104 <= 1
 0 <= items#105 <= 1
 0 <= items#106 <= 1
 0 <= items#107 <= 1
 0 <= items#108 <= 1
 0 <= items#109 <= 1
 0 <= items#110 <= 1
 0 <= items#111 <= 1
 0 <= items#112 <= 1
 0 <= items#113 <= 1
 0 <= items#114 <= 1
 0 <= items#115 <= 1
 0 <= items#116 <= 1
 0 <= items#117 <= 1
 0 <= items#118 <= 1
 0 <= items#119 <= 1
 0 <= items#120 <= 1
 0 <= items#121 <= 1
 0 <= items#122 <= 1
 0 <= items#123 <= 1
 0 <= items#124 <= 1
 0 <= items#125 <= 1
 0 <= items#126 <= 1
 0 <= items#127 <= 1
 0 <= items#128 <= 1
 0 <= items#129 <= 1
 0 <= items#130 <= 1
 0 <= items#131 <= 1
 0 <= items#132 <= 1
 0 <= items#133 <= 1
 0 <= items#134 <= 1
 0 <= items#135 <= 1
 0 <= items#136 <= 1
 0 <= items#137 <= 1
 0 <= items#138 <= 1
 0 <= items#139 <= 1
 0 <= items#140 <= 1
 0 <= items#141 <= 1
 0 <= items#142 <= 1
 0 <= items#143 <= 1
 0 <= items#144 <= 1
 0 <= items#145 <= 1
 0 <= items#146 <= 1
 0 <= items#147 <= 1
 0 <= items#148 <= 1
 0 <= items#149 <= 1
 0 <= items#150 <= 1
 0 <= items#151 <= 1
 0 <= items#152 <= 1
 0 <= items#153 <= 1
 0 <= items#154 <= 1
 0 <= items#155 <= 1
 0 <= items#156 <= 1
 0 <= items#157 <= 1
 0 <= items#158 <= 1
 0 <= items#159 <= 1
 0 <= items#160 <= 1
 0 <= items#161 <= 1
 0 <= items#162 <= 1
 0 <= items#163 <= 1
 0 <= items#164 <= 1
 0 <= items#165 <= 1
 0 <= items#166 <= 1
 0 <= items#167 <= 1
 0 <= items#168 <= 1
 0 <= items#169 <= 1
 0 <= items#170 <= 1
 0 <= items#171 <= 1
 0 <= items#172 <= 1
 0 <= items#173 <= 1
 0 <= items#174 <= 1
 0 <= items#175 <= 1
 0 <= items#176 <= 1
 0 <= items#177 <= 1
 0 <= items#178 <= 1
 0 <= items#179 <= 1
 0 <= items#180 <= 1
 0 <= items#181 <= 1
 0 <= items#182 <= 1
 0 <= items#183 <= 1
 0 <= items#184 <= 1
 0 <= items#185 <= 1
 0 <= items#186 <= 1
 0 <= items#187 <= 1
 0 <= items#188 <= 1
 0 <= items#189 <= 1
 0 <= items#190 <= 1
 0 <= items#191 <= 1
 0 <= items#192 <= 1
 0 <= items#193 <= 1
 0 <= items#194 <= 1
 0 <= items#195 <= 1
 0 <= items#196 <= 1
 0 <= items#197 <= 1
 0 <= items#198 <= 1
 0 <= items#199 <= 1
 0 <= items#200 <= 1
 0 <= items#201 <= 1
 0 <= items#202 <= 1
 0 <= items#203 <= 1
 0 <= items#204 <= 1
 0 <= items#205 <= 1
 0 <= items#206 <= 1
 0 <= items#207 <= 1
 0 <= items#208 <= 1
 0 <= items#209 <= 1
 0 <= items#210 <= 1
 0 <= items#211 <= 1
 0 <= items#212 <= 1
 0 <= items#213 <= 1
 0 <= items#214 <= 1
 0 <= items#215 <= 1
 0 <= items#216 <= 1
 0 <= items#217 <= 1
 0 <= items#218 <= 1
 0 <= items#219 <= 1
 0 <= items#220 <= 1
 0 <= items#221 <= 1
 0 <= items#222 <= 1
 0 <= items#223 <= 1
 0 <= items#224 <= 1
 0 <= items#225 <= 1
 0 <= items#226 <= 1
 0 <= items#227 <= 1
 0 <= items#228 <= 1
 0 <= items#229 <= 1
 0 <= items#230 <= 1
 0 <= items#231 <= 1
 0 <= items#232 <= 1
 0 <= items#233 <= 1
 0 <= items#234 <= 1
 0 <= items#235 <= 1
 0 <= items#236 <= 1
 0 <= items#237 <= 1
 0 <= items#238 <= 1
 0 <= items#239 <= 1
 0 <= items#240 <= 1
 0 <= items#241 <= 1
 0 <= items#242 <= 1
 0 <= items#243 <= 1
 0 <= items#244 <= 1
 0 <= items#245 <= 1
 0 <= items#246 <= 1
 0 <= items#247 <= 1
 0 <= items#248 <= 1
 0 <= items#249 <= 1
 0 <= items#250 <= 1
 0 <= items#251 <= 1
 0 <= items#252 <= 1
 0 <= items#253 <= 1
 0 <= items#254 <= 1
 0 <= items#255 <= 1
 0 <= items#256 <= 1
 0 <= items#257 <= 1
 0 <= items#258 <= 1
 0 <= items#259 <= 1
 0 <= items#260 <= 1
 0 <= items#261 <= 1
 0 <= items#262 <= 1
 0 <= items#263 <= 1
 0 <= items#264 <= 1
 0 <= items#265 <= 1
 0 <= items#266 <= 1
 0 <= items#267 <= 1
 0 <= items#268 <= 1
 0 <= items#269 <= 1
 0 <= items#270 <= 1
 0 <= items#271 <= 1
 0 <= items#272 <= 1
 0 <= items#273 <= 1
 0 <= items#274 <= 1
 0 <= items#275 <= 1
 0 <= items#276 <= 1
 0 <= items#277 <= 1
 0 <= items#278 <= 1
 0 <= items#279 <= 1
 0 <= items#280 <= 1
 0 <= items#281 <= 1
 0 <= items#282 <= 1
 0 <= items#283 <= 1
 0 <= items#284 <= 1
 0 <= items#285 <= 1
 0 <= items#286 <= 1
 0 <= items#287 <= 1
 0 <= items#288 <= 1
 0 <= items#289 <= 1
 0 <= items#290 <= 1
 0 <= items#291 <= 1
 0 <= items#292 <= 1
 0 <= items#293 <= 1
 0 <= items#294 <= 1
 0 <= items#295 <= 1
 0 <= items#296 <= 1
 0 <= items#297 <= 1
 0 <= items#298 <= 1
 0 <= items#299 <= 1
 0 <= items#300 <= 1
 0 <= items#301 <= 1
 0 <= items#302 <= 1
 0 <= items#303 <= 1
 0 <= items#304 <= 1
 0 <= items#305 <= 1
 0 <= items#306 <= 1
 0 <= items#307 <= 1
 0 <= items#308 <= 1
 0 <= items#309 <= 1
 0 <= items#310 <= 1
 0 <= items#311 <= 1
 0 <= items#312 <= 1
 0 <= items#313 <= 1
 0 <= items#314 <= 1
 0 <= items#315 <= 1
 0 <= items#316 <= 1
 0 <= items#317 <= 1
 0 <= items#318 <= 1
 0 <= items#319 <= 1
 0 <= items#320 <= 1
 0 <= items#321 <= 1
 0 <= items#322 <= 1
 0 <= items#323 <= 1
 0 <= items#324 <= 1
 0 <= items#325 <= 1
 0 <= items#326 <= 1
 0 <= items#327 <= 1
 0 <= items#328 <= 1
 0 <= items#329 <= 1
 0 <= items#330 <= 1
 0 <= items#331 <= 1
 0 <= items#332 <= 1
 0 <= items#333 <= 1
 0 <= items#334 <= 1
 0 <= items#335 <= 1
 0 <= items#336 <= 1
 0 <= items#337 <= 1
 0 <= items#338 <= 1
 0 <= items#339 <= 1
 0 <= items#340 <= 1
 0 <= items#341 <= 1
 0 <= items#342 <= 1
 0 <= items#343 <= 1
 0 <= items#344 <= 1
 0 <= items#345 <= 1
 0 <= items#346 <= 1
 0 <= items#347 <= 1
 0 <= items#348 <= 1
 0 <= items#349 <= 1
 0 <= items#350 <= 1
 0 <= items#351 <= 1
 0 <= items#352 <= 1
 0 <= items#353 <= 1
 0 <= items#354 <= 1
 0 <= items#355 <= 1
 0 <= items#356 <= 1
 0 <= items#357 <= 1
 0 <= items#358 <= 1
 0 <= items#359 <= 1
 0 <= items#360 <= 1
 0 <= items#361 <= 1
 0 <= items#362 <= 1
 0 <= items#363 <= 1
 0 <= items#364 <= 1
 0 <= items#365 <= 1
 0 <= items#366 <= 1
 0 <= items#367 <= 1
 0 <= items#368 <= 1
 0 <= items#369 <= 1
 0 <= items#370 <= 1
 0 <= items#371 <= 1
 0 <= items#372 <= 1
 0 <= items#373 <= 1
 0 <= items#374 <= 1
 0 <= items#375 <= 1
 0 <= items#376 <= 1
 0 <= items#377 <= 1
 0 <= items#378 <= 1
 0 <= items#379 <= 1
 0 <= items#380 <= 1
 0 <= items#381 <= 1
 0 <= items#382 <= 1
 0 <= items#383 <= 1
 0 <= items#384 <= 1
 0 <= items#385 <= 1
 0 <= items#386 <= 1
 0 <= items#387 <= 1
 0 <= items#388 <= 1
 0 <= items#389 <= 1
 0 <= items#390 <= 1
 0 <= items#391 <= 1
 0 <= items#392 <= 1
 0 <= items#393 <= 1
 0 <= items#394 <= 1
 0 <= items#395 <= 1
 0 <= items#396 <= 1
 0 <= items#397 <= 1
 0 <= items#398 <= 1
 0 <= items#399 <= 1
 0 <= items#400 <= 1
 0 <= items#401 <= 1
 0 <= items#402 <= 1
 0 <= items#403 <= 1
 0 <= items#404 <= 1
 0 <= items#405 <= 1
 0 <= items#406 <= 1
 0 <= items#407 <= 1
 0 <= items#408 <= 1
 0 <= items#409 <= 1
 0 <= items#410 <= 1
 0 <= items#411 <= 1
 0 <= items#412 <= 1
 0 <= items#413 <= 1
 0 <= items#414 <= 1
 0 <= items#415 <= 1
 0 <= items#416 <= 1
 0 <= items#417 <= 1
 0 <= items#418 <= 1
 0 <= items#419 <= 1
 0 <= items#420 <= 1
 0 <= items#421 <= 1
 0 <= items#422 <= 1
 0 <= items#423 <= 1
 0 <= items#424 <= 1
 0 <= items#425 <= 1
 0 <= items#426 <= 1
 0 <= items#427 <= 1
 0 <= items#428 <= 1
 0 <= items#429 <= 1
 0 <= items#430 <= 1
 0 <= items#431 <= 1
 0 <= items#432 <= 1
 0 <= items#433 <= 1
 0 <= items#434 <= 1
 0 <= items#435 <= 1
 0 <= items#436 <= 1
 0 <= items#437 <= 1
 0 <= items#438 <= 1
 0 <= items#439 <= 1
 0 <= items#440 <= 1
 0 <= items#441 <= 1
 0 <= items#442 <= 1
 0 <= items#443 <= 1
 0 <= items#444 <= 1
 0 <= items#445 <= 1
 0 <= items#446 <= 1
 0 <= items#447 <= 1
 0 <= items#448 <= 1
 0 <= items#449 <= 1
 0 <= items#450 <= 1
 0 <= items#451 <= 1
 0 <= items#452 <= 1
 0 <= items#453 <= 1
 0 <= items#454 <= 1
 0 <= items#455 <= 1
 0 <= items#456 <= 1
 0 <= items#457 <= 1
 0 <= items#458 <= 1
 0 <= items#459 <= 1
 0 <= items#460 <= 1
 0 <= items#461 <= 1
 0 <= items#462 <= 1
 0 <= items#463 <= 1
 0 <= items#464 <= 1
 0 <= items#465 <= 1
 0 <= items#466 <= 1
 0 <= items#467 <= 1
 0 <= items#468 <= 1
 0 <= items#469 <= 1
 0 <= items#470 <= 1
 0 <= items#471 <= 1
 0 <= items#472 <= 1
 0 <= items#473 <= 1
 0 <= items#474 <= 1
 0 <= items#475 <= 1
 0 <= items#476 <= 1
 0 <= items#477 <= 1
 0 <= items#478 <= 1
 0 <= items#479 <= 1
 0 <= items#480 <= 1
 0 <= items#481 <= 1
 0 <= items#482 <= 1
 0 <= items#483 <= 1
 0 <= items#484 <= 1
 0 <= items#485 <= 1
 0 <= items#486 <= 1
 0 <= items#487 <= 1
 0 <= items#488 <= 1
 0 <= items#489 <= 1
 0 <= items#490 <= 1
 0 <= items#491 <= 1
 0 <= items#492 <= 1
 0 <= items#493 <= 1
 0 <= items#494 <= 1
 0 <= items#495 <= 1
 0 <= items#496 <= 1
 0 <= items#497 <= 1
 0 <= items#498 <= 1
 0 <= items#499 <= 1
 0 <= items#500 <= 1
General
 items#1
 items#2
 items#3
 items#4
 items#5
 items#6
 items#7
 items#8
 items#9
 items#10
 items#11
 items#12
 items#13
 items#14
 items#15
 items#16
 items#17
 items#18
 items#19
 items#20
 items#21
 items#22
 items#23
 items#24
 items#25
 items#26
 items#27
 items#28
 items#29
 items#30
 items#31
 items#32
 items#33
 items#34
 items#35
 items#36
 items#37
 items#38
 items#39
 items#40
 items#41
 items#42
 items#43
 items#44
 items#45
 items#46
 items#47
 items#48
 items#49
 items#50
 items#51
 items#52
 items#53
 items#54
 items#55
 items#56
 items#57
 items#58
 items#59
 items#60
 items#61
 items#62
 items#63
 items#64
 items#65
 items#66
 items#67
 items#68
 items#69
 items#70
 items#71
 items#72
 items#73
 items#74
 items#75
 items#76
 items#77
 items#78
 items#79
 items#80
 items#81
 items#82
 items#83
 items#84
 items#85
 items#86
 items#87
 items#88
 items#89
 items#90
 items#91
 items#92
 items#93
 items#94
 items#95
 items#96
 items#97
 items#98
 items#99
 items#100
 items#101
 items#102
 items#103
 items#104
 items#105
 items#106
 items#107
 items#108
 items#109
 items#110
 items#111
 items#112
 items#113
 items#114
 items#115
 items#116
 items#117
 items#118
 items#119
 items#120
 items#121
 items#122
 items#123
 items#124
 items#125
 items#126
 items#127
 items#128
 items#129
 items#130
 items#131
 items#132
 items#133
 items#134
 items#135
 items#136
 items#137
 items#138
 items#139
 items#140
 items#141
 items#142
 items#143
 items#144
 items#145
 items#146
 items#147
 items#148
 items#149
 items#150
 items#151
 items#152
 items#153
 items#154
 items#155
 items#156
 items#157
 items#158
 items#159
 items#160
 items#161
 items#162
 items#163
 items#164
 items#165
 items#166
 items#167
 items#168
 items#169
 items#170
 items#171
 items#172
 items#173
 items#174
 items#175
 items#176
 items#177
 items#178
 items#179
 items#180
 items#181
 items#182
 items#183
 items#184
 items#185
 items#186
 items#187
 items#188
 items#189
 items#190
 items#191
 items#192
 items#193
 items#194
 items#195
 items#196
 items#197
 items#198
 items#199
 items#200
 items#201
 items#202
 items#203
 items#204
 items#205
 items#206
 items#207
 items#208
 items#209
 items#210
 items#211
 items#212
 items#213
 items#214
 items#215
 items#216
 items#217
 items#218
 items#219
 items#220
 items#221
 items#222
 items#223
 items#224
 items#225
 items#226
 items#227
 items#228
 items#229
 items#230
 items#231
 items#232
 items#233
 items#234
 items#235
 items#236
 items#237
 items#238
 items#239
 items#240
 items#241
 items#242
 items#243
 items#244
 items#245
 items#246
 items#247
 items#248
 items#249
 items#250
 items#251
 items#252
 items#253
 items#254
 items#255
 items#256
 items#257
 items#258
 items#259
 items#260
 items#261
 items#262
 items#263
 items#264
 items#265
 items#266
 items#267
 items#268
 items#269
 items#270
 items#271
 items#272
 items#273
 items#274
 items#275
 items#276
 items#277
 items#278
 items#279
 items#280
 items#281
 items#282
 items#283
 items#284
 items#285
 items#286
 items#287
 items#288
 items#289
 items#290
 items#291
 items#292
 items#293
 items#294
 items#295
 items#296
 items#297
 items#298
 items#299
 items#300
 items#301
 items#302
 items#303
 items#304
 items#305
 items#306
 items#307
 items#308
 items#309
 items#310
 items#311
 items#312
 items#313
 items#314
 items#315
 items#316
 items#317
 items#318
 items#319
 items#320
 items#321
 items#322
 items#323
 items#324
 items#325
 items#326
 items#327
 items#328
 items#329
 items#330
 items#331
 items#332
 items#333
 items#334
 items#335
 items#336
 items#337
 items#338
 items#339
 items#340
 items#341
 items#342
 items#343
 items#344
 items#345
 items#346
 items#347
 items#348
 items#349
 items#350
 items#351
 items#352
 items#353
 items#354
 items#355
 items#356
 items#357
 items#358
 items#359
 items#360
 items#361
 items#362
 items#363
 items#364
 items#365
 items#366
 items#367
 items#368
 items#369
 items#370
 items#371
 items#372
 items#373
 items#374
 items#375
 items#376
 items#377
 items#378
 items#379
 items#380
 items#381
 items#382
 items#383
 items#384
 items#385
 items#386
 items#387
 items#388
 items#389
 items#390
 items#391
 items#392
 items#393
 items#394
 items#395
 items#396
 items#397
 items#398
 items#399
 items#400
 items#401
 items#402
 items#403
 items#404
 items#405
 items#406
 items#407
 items#408
 items#409
 items#410
 items#411
 items#412
 items#413
 items#414
 items#415
 items#416
 items#417
 items#418
 items#419
 items#420
 items#421
 items#422
 items#423
 items#424
 items#425
 items#426
 items#427
 items#428
 items#429
 items#430
 items#431
 items#432
 items#433
 items#434
 items#435
 items#436
 items#437
 items#438
 items#439
 items#440
 items#441
 items#442
 items#443
 items#444
 items#445
 items#446
 items#447
 items#448
 items#449
 items#450
 items#451
 items#452
 items#453
 items#454
 items#455
 items#456
 items#457
 items#458
 items#459
 items#460
 items#461
 items#462
 items#463
 items#464
 items#465
 items#466
 items#467
 items#468
 items#469
 items#470
 items#471
 items#472
 items#473
 items#474
 items#475
 items#476
 items#477
 items#478
 items#479
 items#480
 items#481
 items#482
 items#483
 items#484
 items#485
 items#486
 items#487
 items#488
 items#489
 items#490
 items#491
 items#492
 items#493
 items#494
 items#495
 items#496
 items#497
 items#498
 items#499
 items#500
End
